% -------------- Parameters --------------- %

tempFilter = true;

predFilter = true;

% ------------- Assembly data ------------- %

nbrTasks = 21;
nbrFixtures = 1;
nbrMachines = 2;
nbrTools = 2;
nbrTrays = 5;
nbrOutputs = 1;
name = ["Take bottom","Angle top-button","Take top","Take bottom-switch","Take button","Take ring","Take top-button-ring from top-tray","Take switch","Put top-button-ring in top-tray","Put bottom in fixture","Put top in fixture","Mount ring on top-button, mount","Mount button on top","Mount ring on top-button, hold","Mount switch in bottom","Lift top-button, support","Fixate top-button-ring","Lift top-button, hold top-button","Turn top-button","Mount top-button-ring on bottom-switch","Put bottom-switch on table","Start dummy1","Start dummy2","Goal dummy1","Goal dummy2"];

duration = [5,10,5,0,5,10,5,5,5,10,10,260,25,260,15,5,15,5,20,15,5,0,0,0,0];

% Trays
% 1: top-tray
% 2: Ring tray
% 3: Button tray
% 4: Bottom tray
% 5: Switch tray
tray = [4,0,1,0,3,2,1,5,1,0,0,0,0,0,0,0,0,0,0,0,0];

% Outputs
% 1: Output
out_put = [0,0,0,0,0,0,0,0,0,0,0,0,0,0,0,0,0,0,0,1,1];

% Fixtures
% 1: Front fixture
fixture = [0,1,0,1,0,0,0,0,0,1,1,0,1,0,1,0,1,1,0,0,0];

% Components
% 1: Top-Button
% 2: Top-Button-Ring
% 3: Top
% 4: Switch
% 5: Button
% 6: Ring
% 7: Complete
% 8: Bottom
% 9: Bottom-Switch
componentsUsed = [{8},{1},{3},{9},{5},{6},{2},{4},{2},{8},{3},{6},{3,5},{1},{8,4},{1},{2},{1},{1},{2,9},{9}];
nbrComponents = 9;

taskSubComponents = [{8},{3,5},{3},{8,4},{5},{6},{1,6},{4},{1,6},{8},{3},{6},{3,5},{3,5},{8,4},{3,5},{1,6},{3,5},{3,5},{1,6,8,4},{8,4}];
subComponents = [{3,5},{1,6},{},{},{},{},{2,9},{},{8,4}];
taskCompleteSubComponents = [{},{3,5},{},{4,8},{},{},{1,3,5,6},{},{1,3,5,6},{},{},{},{},{3,5},{},{3,5},{1,3,5,6},{3,5},{3,5},{1,3,4,5,6,8},{4,8}];

componentCreated = [0,0,0,0,0,0,0,0,0,0,0,2,1,2,9,0,0,0,0,7,0];

% putting a component
putting = {9,10,11,21};

% mounting a component
mounting = {12,13,14,15,20};

% taking a component
taking = {1,2,3,4,5,6,7,8};

% moving a component
moving = {16,17,18,19};

concurrentTasks = [{18,16},{14,12}];
nbrConcurrentGroups = 2;

tasksOutOfRange=[{6,1,8},{3,5,9,7}];

order = [|2,18,19,14,17,9|];
maxOrderedLength = 6;
orderedGroups = 1;

timeMatrix3D = array3d(1..23,1..21,1..2,[0,68,8,74,7,69,8,74,9,74,3,71,7,69,4,72,7,69,8,74,8,74,4,67,8,74,4,67,8,74,8,74,7,74,8,74,4,67,7,74,7,74,8,74,0,80,8,75,0,80,3,80,9,77,8,75,5,78,8,75,0,80,0,80,7,73,0,80,7,73,0,80,0,80,1,80,0,80,7,73,2,80,2,80,7,69,8,75,0,70,8,75,7,75,10,72,0,70,9,73,0,70,8,75,8,75,3,68,8,75,3,68,8,75,8,75,9,75,8,75,3,68,9,75,9,75,8,74,0,80,8,75,0,80,3,80,9,77,8,75,5,78,8,75,0,80,0,80,7,73,0,80,7,73,0,80,0,80,1,80,0,80,7,73,2,80,2,80,9,74,3,80,7,75,3,80,0,80,11,77,7,75,8,78,7,75,3,80,3,80,7,73,3,80,7,73,3,80,3,80,4,80,3,80,7,73,5,80,5,80,3,71,9,77,10,72,9,77,11,77,0,74,10,72,4,75,10,72,9,77,9,77,7,70,9,77,7,70,9,77,9,77,9,77,9,77,7,70,8,77,8,77,7,69,8,75,0,70,8,75,7,75,10,72,0,70,9,73,0,70,8,75,8,75,3,68,8,75,3,68,8,75,8,75,9,75,8,75,3,68,9,75,9,75,4,72,5,78,9,73,5,78,8,78,4,75,9,73,0,76,9,73,5,78,5,78,6,71,5,78,6,71,5,78,5,78,4,78,5,78,6,71,4,78,4,78,7,69,8,75,0,70,8,75,7,75,10,72,0,70,9,73,0,70,8,75,8,75,3,68,8,75,3,68,8,75,8,75,9,75,8,75,3,68,9,75,9,75,8,74,0,80,8,75,0,80,3,80,9,77,8,75,5,78,8,75,0,80,0,80,7,73,0,80,7,73,0,80,0,80,1,80,0,80,7,73,2,80,2,80,8,74,0,80,8,75,0,80,3,80,9,77,8,75,5,78,8,75,0,80,0,80,7,73,0,80,7,73,0,80,0,80,1,80,0,80,7,73,2,80,2,80,4,67,7,73,3,68,7,73,7,73,7,70,3,68,6,71,3,68,7,73,7,73,0,66,7,73,0,66,7,73,7,73,7,73,7,73,0,66,8,73,8,73,8,74,0,80,8,75,0,80,3,80,9,77,8,75,5,78,8,75,0,80,0,80,7,73,0,80,7,73,0,80,0,80,1,80,0,80,7,73,2,80,2,80,4,67,7,73,3,68,7,73,7,73,7,70,3,68,6,71,3,68,7,73,7,73,0,66,7,73,0,66,7,73,7,73,7,73,7,73,0,66,8,73,8,73,8,74,0,80,8,75,0,80,3,80,9,77,8,75,5,78,8,75,0,80,0,80,7,73,0,80,7,73,0,80,0,80,1,80,0,80,7,73,2,80,2,80,4,67,7,73,3,68,7,73,7,73,7,70,3,68,6,71,3,68,7,73,7,73,0,66,7,73,0,66,7,73,7,73,7,73,7,73,0,66,8,73,8,73,7,74,1,80,9,75,1,80,4,80,9,77,9,75,4,78,9,75,1,80,1,80,7,73,1,80,7,73,1,80,1,80,0,80,1,80,7,73,1,80,1,80,4,67,7,73,3,68,7,73,7,73,7,70,3,68,6,71,3,68,7,73,7,73,0,66,7,73,0,66,7,73,7,73,7,73,7,73,0,66,8,73,8,73,4,67,7,73,3,68,7,73,7,73,7,70,3,68,6,71,3,68,7,73,7,73,0,66,7,73,0,66,7,73,7,73,7,73,7,73,0,66,8,73,8,73,7,74,2,80,9,75,2,80,5,80,8,77,9,75,4,78,9,75,2,80,2,80,8,73,2,80,8,73,2,80,2,80,1,80,2,80,8,73,0,80,0,80,7,74,2,80,9,75,2,80,5,80,8,77,9,75,4,78,9,75,2,80,2,80,8,73,2,80,8,73,2,80,2,80,1,80,2,80,8,73,0,80,0,80,4,67,7,73,3,68,7,73,7,73,7,70,3,68,6,71,3,68,7,73,7,73,0,66,7,73,0,66,7,73,7,73,7,73,7,73,0,66,8,73,8,73,4,67,7,73,3,68,7,73,7,73,7,70,3,68,6,71,3,68,7,73,7,73,0,66,7,73,0,66,7,73,7,73,7,73,7,73,0,66,8,73,8,73,]);
timeMatrix3DDepth = 2;

% Tools
% 1: tool2
% 2: tool1
toolNeeded = [1,2,2,1,2,2,2,1,2,1,2,2,2,2,1,0,2,2,2,2,1,0,0];
